17	4	3
16	7	12	19	40	16	28	
0	0	0	0	0	3	10	3	8	1	7	3	2	3	4
9	0	0	0	8	9	3	10	1	10	9	3	6	8	9
4	0	5	0	0	3	8	3	7	9	2	2	7	17
2	5	0	0	0	6	4	8	10	3	8	1	5
10	0	0	0	8	10	4	2	5	1	9	2	14	17
25	0	0	0	10	6	4	9	9	1	9	1	13
25	3	0	0	0	5	10	2	4	10	2	2	10	12
125	0	0	5	0	3	3	9	5	10	8	2	11	17
200	10	0	0	0	6	5	1	3	4	4	2	14	17
75	0	0	0	2	10	4	7	2	9	8	3	15	16	17
225	0	0	0	3	10	4	1	9	2	2	1	17
225	0	0	0	5	7	7	1	8	10	10	1	17
5	5	0	0	0	10	2	2	8	7	2	2	17	17
6	0	0	0	10	6	3	6	7	5	10	2	16	17
4	4	0	0	0	10	5	3	7	7	1	1	17
7	0	6	0	0	4	7	5	5	5	7	1	17
0	0	0	0	0	6	2	3	6	10	3	0
